(set-option :print-success false)
(set-logic QF_UF)
(declare-sort x67 0)
(declare-sort x124 0)
(declare-fun x127 () x124)
(declare-fun x38 () x124)
(declare-fun x105 () x124)
(declare-fun x73 (x124 x124) x124)
(declare-fun x76 () x124)
(declare-fun x96 (x124 x124) x124)
(declare-fun x7 () x124)
(assert (not (and (and (= x38 (x96 x7 x76)) (and (and (and (= x7 (x96 x7 x105)) (and (= (x96 x76 x7) x7) (and (and (and (and (and (= (x96 x127 x7) x127) (and (and (= (x96 x127 x127) x76) (and (= (x96 x127 x38) x38) (and (and (= x76 (x96 x38 x7)) (and (= x127 (x96 x38 x76)) (and (= x7 (x96 x38 x127)) (and (= (x96 x38 x38) x105) (and (and (= (x96 x105 x7) x38) (and (= (x96 x105 x76) x76) (and (and (= (x96 x105 x38) x7) (= (x96 x105 x105) x127)) (= x105 (x96 x105 x127))))) (= (x96 x38 x105) x38)))))) (= x105 (x96 x127 x105))))) (= x7 (x96 x127 x76)))) (= x76 (x96 x76 x105))) (= x127 (x96 x76 x38))) (= (x96 x76 x127) x38)) (= (x96 x76 x76) x105)))) (= x76 (x96 x7 x38))) (= x127 (x96 x7 x127)))) (= (x96 x7 x7) x105))))
(assert (let ((x118 (x96 x76 x7)) (x152 (x96 x38 x76)) (x23 (x96 x127 x38)) (x41 (x96 x105 x127)) (x2 (x96 x76 x105)) (x153 (x96 x76 x127)) (x1 (x96 x127 x105)) (x50 (x96 x105 x105)) (x159 (x96 x7 x127)) (x20 (x96 x76 x76)) (x157 (x96 x105 x76)) (x17 (x96 x7 x76)) (x125 (x96 x38 x105)) (x56 (x96 x105 x7)) (x107 (x96 x127 x7)) (x97 (x96 x76 x38)) (x100 (x96 x7 x105)) (x53 (x96 x38 x127)) (x24 (x96 x127 x127)) (x102 (x96 x7 x38)) (x82 (x96 x38 x38)) (x147 (x96 x105 x38)) (x61 (x96 x127 x76)) (x45 (x96 x7 x7)) (x80 (x96 x38 x7))) (and (and (and (and (and (and (not (= x102 x45)) (and (not (= x17 x102)) (and (not (= x102 x159)) (and (not (= x100 x45)) (and (and (not (= x100 x102)) (not (= x100 x159))) (not (= x17 x100))))))) (not (= x159 x17))) (not (= x159 x45))) (not (= x17 x45))) (and (and (and (and (and (and (and (and (and (not (= x1 x107)) (and (not (= x1 x61)) (and (not (= x24 x1)) (not (= x1 x23))))) (not (= x23 x24))) (not (= x23 x61))) (not (= x107 x23))) (not (= x24 x61))) (not (= x107 x24))) (not (= x107 x61))) (and (and (and (not (= x56 x41)) (and (not (= x157 x41)) (and (and (and (not (= x147 x41)) (and (and (not (= x157 x50)) (and (not (= x50 x147)) (not (= x41 x50)))) (not (= x56 x50)))) (not (= x157 x147))) (not (= x56 x147))))) (not (= x56 x157))) (and (and (and (and (not (= x82 x80)) (and (not (= x152 x82)) (and (and (not (= x125 x80)) (and (not (= x152 x125)) (and (not (= x82 x125)) (not (= x125 x53))))) (not (= x53 x82))))) (not (= x53 x152))) (not (= x80 x53))) (not (= x80 x152))))) (and (not (= x118 x20)) (and (not (= x153 x118)) (and (and (not (= x118 x97)) (and (not (= x97 x20)) (and (not (= x97 x153)) (and (and (not (= x2 x20)) (and (not (= x97 x2)) (not (= x2 x153)))) (not (= x2 x118)))))) (not (= x20 x153))))))) (and (and (and (and (and (not (= x100 x2)) (and (and (and (not (= x125 x100)) (and (not (= x2 x125)) (and (not (= x1 x125)) (and (not (= x100 x50)) (and (and (not (= x125 x50)) (not (= x1 x50))) (not (= x2 x50))))))) (not (= x1 x2))) (not (= x100 x1)))) (and (not (= x102 x97)) (and (not (= x23 x102)) (and (and (not (= x102 x82)) (and (and (not (= x23 x82)) (and (not (= x147 x102)) (and (not (= x147 x97)) (and (not (= x23 x147)) (not (= x82 x147)))))) (not (= x97 x82)))) (not (= x97 x23)))))) (and (and (and (and (and (and (and (not (= x159 x41)) (and (and (not (= x41 x24)) (not (= x41 x53))) (not (= x153 x41)))) (not (= x53 x24))) (not (= x53 x153))) (not (= x159 x53))) (not (= x24 x153))) (not (= x159 x24))) (not (= x153 x159)))) (and (not (= x20 x17)) (and (not (= x17 x61)) (and (and (not (= x17 x152)) (and (and (not (= x61 x152)) (and (not (= x157 x17)) (and (and (not (= x157 x61)) (not (= x157 x152))) (not (= x157 x20))))) (not (= x152 x20)))) (not (= x61 x20)))))) (and (and (not (= x107 x45)) (and (and (not (= x45 x80)) (and (and (and (not (= x45 x56)) (and (and (not (= x56 x107)) (not (= x56 x80))) (not (= x56 x118)))) (not (= x107 x80))) (not (= x118 x80)))) (not (= x107 x118)))) (not (= x118 x45)))))))
(assert (let ((x63 (x96 x38 x38)) (x44 (x96 x76 x38)) (x98 (x96 x76 x127)) (x5 (x96 x105 x38)) (x144 (x96 x105 x105)) (x83 (x96 x7 x76)) (x31 (x96 x127 x105)) (x86 (x96 x38 x76)) (x18 (x96 x127 x76)) (x15 (x96 x7 x105)) (x108 (x96 x127 x7)) (x158 (x96 x38 x7)) (x75 (x96 x7 x127)) (x119 (x96 x127 x127)) (x91 (x96 x7 x7)) (x33 (x96 x76 x7)) (x43 (x96 x105 x127)) (x10 (x96 x38 x127)) (x14 (x96 x76 x76)) (x136 (x96 x127 x38)) (x58 (x96 x105 x76)) (x120 (x96 x38 x105)) (x34 (x96 x7 x38)) (x139 (x96 x105 x7)) (x32 (x96 x76 x105))) (let ((x100 (not (= x105 x31))) (x24 (not (= x105 x86))) (x11 (not (= x15 x7))) (x77 (not (= x38 x10))) (x54 (not (= x120 x38))) (x126 (not (= x127 x75))) (x125 (not (= x120 x105))) (x107 (not (= x105 x83))) (x153 (not (= x98 x105))) (x27 (not (= x58 x76))) (x90 (not (= x63 x38))) (x88 (not (= x127 x91))) (x84 (not (= x75 x76))) (x52 (not (= x38 x139))) (x56 (not (= x75 x105))) (x129 (not (= x18 x38))) (x26 (not (= x38 x32))) (x80 (not (= x108 x105))) (x95 (not (= x10 x127))) (x68 (not (= x38 x144))) (x130 (not (= x127 x139))) (x94 (not (= x127 x98))) (x40 (not (= x43 x76))) (x135 (not (= x63 x76))) (x131 (not (= x83 x7))) (x53 (not (= x44 x105))) (x114 (not (= x38 x14))) (x21 (not (= x31 x127))) (x110 (not (= x119 x127))) (x155 (not (= x98 x76))) (x69 (not (= x144 x7))) (x23 (not (= x10 x105))) (x50 (not (= x144 x105))) (x152 (not (= x105 x15))) (x93 (not (= x44 x127))) (x39 (not (= x127 x158))) (x121 (not (= x127 x108))) (x123 (not (= x38 x98))) (x22 (not (= x144 x127))) (x46 (not (= x63 x7))) (x25 (not (= x120 x127))) (x60 (not (= x144 x76))) (x41 (not (= x105 x58))) (x29 (not (= x58 x127))) (x62 (not (= x76 x34))) (x37 (not (= x32 x7))) (x97 (not (= x119 x105))) (x146 (not (= x76 x158))) (x116 (not (= x34 x38))) (x103 (not (= x91 x38))) (x59 (not (= x127 x5))) (x145 (not (= x33 x76))) (x3 (not (= x139 x7))) (x140 (not (= x10 x76))) (x45 (not (= x105 x91))) (x115 (not (= x33 x127))) (x70 (not (= x43 x7))) (x99 (not (= x127 x14))) (x74 (not (= x44 x38))) (x30 (not (= x127 x136))) (x12 (not (= x38 x15))) (x47 (not (= x38 x86))) (x156 (not (= x76 x136))) (x112 (not (= x7 x120))) (x113 (not (= x127 x15))) (x89 (not (= x136 x38))) (x20 (not (= x105 x34))) (x49 (not (= x58 x7))) (x157 (not (= x105 x14))) (x36 (not (= x127 x63))) (x81 (not (= x7 x158))) (x57 (not (= x76 x119))) (x72 (not (= x7 x10))) (x28 (not (= x136 x7))) (x143 (not (= x44 x7))) (x71 (not (= x7 x91))) (x101 (not (= x7 x5))) (x9 (not (= x76 x91))) (x147 (not (= x43 x105))) (x154 (not (= x76 x83))) (x85 (not (= x32 x76))) (x133 (not (= x76 x18))) (x122 (not (= x34 x7))) (x13 (not (= x83 x127))) (x137 (not (= x7 x31))) (x6 (not (= x15 x76))) (x141 (not (= x38 x108))) (x65 (not (= x86 x76))) (x149 (not (= x108 x7))) (x134 (not (= x38 x119))) (x87 (not (= x76 x5))) (x79 (not (= x38 x158))) (x61 (not (= x105 x139))) (x148 (not (= x43 x127))) (x64 (not (= x127 x34))) (x92 (not (= x43 x38))) (x117 (not (= x58 x38))) (x109 (not (= x14 x76))) (x51 (not (= x7 x75))) (x159 (not (= x18 x105))) (x132 (not (= x83 x38))) (x66 (not (= x127 x18))) (x42 (not (= x31 x38))) (x142 (not (= x127 x32))) (x19 (not (= x98 x7))) (x78 (not (= x139 x76))) (x102 (not (= x105 x32))) (x118 (not (= x105 x33))) (x111 (not (= x76 x44))) (x138 (not (= x7 x119))) (x151 (not (= x38 x75))) (x48 (not (= x86 x7))) (x17 (not (= x105 x158))) (x104 (not (= x38 x5))) (x16 (not (= x86 x127))) (x1 (not (= x105 x5))) (x8 (not (= x108 x76))) (x106 (not (= x38 x33))) (x82 (not (= x105 x136))) (x2 (not (= x105 x63))) (x4 (not (= x7 x14))) (x35 (not (= x33 x7))) (x150 (not (= x76 x31))) (x55 (not (= x18 x7))) (x128 (not (= x76 x120)))) (or (and (and (and (or x131 x35) (and (or x51 x149) (and (or x11 x3) (or x81 x122)))) (or x71 x71)) (and (and (and (and (or x55 x19) (and (and (or x137 x70) (or x28 x72)) (or x138 x138))) (or x51 x149)) (and (and (or x11 x3) (and (and (and (or x69 x69) (or x101 x112)) (or x137 x70)) (or x37 x49))) (and (or x81 x122) (and (or x48 x143) (and (and (or x112 x101) (or x46 x46)) (or x72 x28)))))) (and (or x131 x35) (and (or x4 x4) (and (and (or x48 x143) (or x49 x37)) (or x19 x55)))))) (or (or (or (and (and (and (or x118 x107) (and (and (or x153 x159) (and (or x53 x24) (or x41 x102))) (or x157 x157))) (and (and (and (or x61 x152) (and (and (and (or x50 x50) (or x125 x1)) (or x100 x147)) (or x102 x41))) (and (and (and (or x82 x23) (and (or x2 x2) (or x1 x125))) (or x24 x53)) (or x20 x17))) (and (and (or x153 x159) (and (and (or x82 x23) (or x100 x147)) (or x97 x97))) (or x80 x56)))) (and (or x45 x45) (and (and (or x80 x56) (and (or x152 x61) (or x20 x17))) (or x118 x107)))) (and (and (and (and (and (and (or x26 x117) (and (and (or x68 x68) (or x54 x104)) (or x92 x42))) (or x52 x12)) (and (and (and (and (or x90 x90) (or x104 x54)) (or x89 x77)) (or x47 x74)) (or x116 x79))) (and (or x151 x141) (and (and (or x134 x134) (and (or x42 x92) (or x89 x77))) (or x123 x129)))) (and (or x106 x132) (and (and (or x123 x129) (and (or x47 x74) (or x26 x117))) (or x114 x114)))) (and (or x103 x103) (and (and (or x151 x141) (and (or x116 x79) (or x12 x52))) (or x106 x132))))) (and (and (and (or x13 x115) (and (or x121 x126) (and (or x130 x113) (or x64 x39)))) (or x88 x88)) (and (and (and (or x121 x126) (and (and (and (or x95 x30) (or x21 x148)) (or x110 x110)) (or x66 x94))) (and (and (or x113 x130) (and (and (or x148 x21) (and (or x25 x59) (or x22 x22))) (or x29 x142))) (and (or x39 x64) (and (or x16 x93) (and (and (or x36 x36) (or x25 x59)) (or x95 x30)))))) (and (or x13 x115) (and (and (and (or x29 x142) (or x16 x93)) (or x94 x66)) (or x99 x99)))))) (and (and (and (or x154 x145) (and (or x109 x109) (and (or x133 x155) (and (or x65 x111) (or x27 x85))))) (and (and (and (and (or x111 x65) (and (and (or x128 x87) (or x135 x135)) (or x140 x156))) (or x146 x62)) (and (and (or x85 x27) (and (and (or x87 x128) (or x60 x60)) (or x150 x40))) (or x6 x78))) (and (or x84 x8) (and (or x155 x133) (and (or x57 x57) (and (or x40 x150) (or x156 x140))))))) (and (and (and (or x8 x84) (and (or x146 x62) (or x78 x6))) (or x145 x154)) (or x9 x9))))))))
(assert (let ((x23 (x96 x38 x127)) (x82 (x96 x127 x38)) (x45 (= x7 (x96 x7 x7))) (x41 (x96 x105 x76)) (x20 (x96 x7 x38)) (x17 (x96 x38 x7)) (x2 (= x38 (x96 x38 x38))) (x147 (x96 x105 x127)) (x24 (x96 x38 x76)) (x50 (= x105 (x96 x105 x105))) (x159 (x96 x127 x76)) (x56 (x96 x7 x127)) (x53 (x96 x76 x38)) (x97 (= x127 (x96 x127 x127))) (x152 (x96 x7 x105)) (x1 (x96 x105 x38)) (x153 (x96 x76 x127)) (x80 (x96 x127 x7)) (x107 (x96 x7 x76)) (x61 (x96 x105 x7)) (x100 (x96 x127 x105)) (x118 (x96 x76 x7)) (x102 (x96 x76 x105)) (x125 (x96 x38 x105)) (x157 (= (x96 x76 x76) x76))) (or (or (or (or (and (= x56 x7) (= x80 x7)) (or (and (= x7 x152) (= x61 x7)) (and (= x20 x7) (= x7 x17)))) (and (= x118 x7) (= x7 x107))) (and x45 x45)) (or (or (and (= x76 x107) (= x118 x76)) (or (or (or (and (= x53 x76) (= x76 x24)) (and (= x76 x41) (= x76 x102))) (and (= x159 x76) (= x76 x153))) (and x157 x157))) (or (or (and (= x80 x127) (= x127 x56)) (or (or (or (and (= x127 x100) (= x127 x147)) (and (= x127 x82) (= x127 x23))) (and x97 x97)) (and (= x127 x159) (= x127 x153)))) (or (or (or (or (or (and (= x105 x1) (= x125 x105)) (and x50 x50)) (and (= x147 x105) (= x100 x105))) (and (= x102 x105) (= x41 x105))) (and (= x105 x61) (= x105 x152))) (or (and (= x20 x38) (= x38 x17)) (or (and (= x38 x53) (= x38 x24)) (or (or (and x2 x2) (and (= x38 x1) (= x38 x125))) (and (= x38 x82) (= x38 x23)))))))))))
(assert (let ((x1 (x96 x127 x127)) (x2 (x96 x76 x76)) (x50 (x96 x105 x105)) (x125 (x96 x38 x38)) (x100 (x96 x7 x7))) (and (or (or (or (= x127 (x96 x1 x127)) (or (= (x96 x125 x38) x38) (= x105 (x96 x50 x105)))) (= x76 (x96 x2 x76))) (= x7 (x96 x100 x7))) (and (or (= x7 (x96 x7 x100)) (or (or (= x7 (x96 x127 (x96 x7 x127))) (or (= x7 (x96 x38 (x96 x7 x38))) (= (x96 x105 (x96 x7 x105)) x7))) (= (x96 x76 (x96 x7 x76)) x7))) (and (and (and (or (or (or (= (x96 x127 (x96 x38 x127)) x38) (or (= x38 (x96 x38 x125)) (= x38 (x96 x105 (x96 x38 x105))))) (= x38 (x96 x76 (x96 x38 x76)))) (= (x96 x7 (x96 x38 x7)) x38)) (or (or (= x105 (x96 x76 (x96 x105 x76))) (or (= (x96 x127 (x96 x105 x127)) x105) (or (= (x96 x38 (x96 x105 x38)) x105) (= x105 (x96 x105 x50))))) (= x105 (x96 x7 (x96 x105 x7))))) (or (or (= x127 (x96 x76 (x96 x127 x76))) (or (= (x96 x127 x1) x127) (or (= x127 (x96 x105 (x96 x127 x105))) (= (x96 x38 (x96 x127 x38)) x127)))) (= (x96 x7 (x96 x127 x7)) x127))) (or (= (x96 x7 (x96 x76 x7)) x76) (or (or (= x76 (x96 x127 (x96 x76 x127))) (or (= x76 (x96 x38 (x96 x76 x38))) (= x76 (x96 x105 (x96 x76 x105))))) (= x76 (x96 x76 x2)))))))))
(assert (and (= x76 (x96 x127 x127)) (and (and (= (x96 x7 x76) x38) (= x105 (x96 x7 x7))) (= x127 (x96 x105 x105)))))
(assert (and (or (= x7 (x96 x7 (x96 x7 x7))) (or (or (= (x96 x7 (x96 x7 x127)) x127) (or (= x38 (x96 x7 (x96 x7 x38))) (= x105 (x96 x7 (x96 x7 x105))))) (= (x96 x7 (x96 x7 x76)) x76))) (and (and (or (= x7 (x96 x127 (x96 x127 x7))) (or (or (= x127 (x96 x127 (x96 x127 x127))) (or (= x105 (x96 x127 (x96 x127 x105))) (= x38 (x96 x127 (x96 x127 x38))))) (= (x96 x127 (x96 x127 x76)) x76))) (and (or (= x7 (x96 x38 (x96 x38 x7))) (or (or (= (x96 x38 (x96 x38 x127)) x127) (or (= x38 (x96 x38 (x96 x38 x38))) (= (x96 x38 (x96 x38 x105)) x105))) (= (x96 x38 (x96 x38 x76)) x76))) (or (= (x96 x105 (x96 x105 x7)) x7) (or (or (or (= x105 (x96 x105 (x96 x105 x105))) (= x38 (x96 x105 (x96 x105 x38)))) (= x127 (x96 x105 (x96 x105 x127)))) (= (x96 x105 (x96 x105 x76)) x76))))) (or (= x7 (x96 x76 (x96 x76 x7))) (or (or (= (x96 x76 (x96 x76 x127)) x127) (or (= x105 (x96 x76 (x96 x76 x105))) (= x38 (x96 x76 (x96 x76 x38))))) (= x76 (x96 x76 (x96 x76 x76))))))))
(assert (let ((x24 (x96 x127 x127)) (x41 (x96 x105 x127)) (x159 (x96 x7 x127)) (x147 (x96 x105 x38)) (x157 (x96 x105 x76)) (x80 (x96 x38 x7)) (x53 (x96 x38 x127)) (x61 (x96 x127 x76)) (x20 (x96 x76 x76)) (x45 (x96 x7 x7)) (x152 (x96 x38 x76)) (x56 (x96 x105 x7)) (x2 (x96 x76 x105)) (x1 (x96 x127 x105)) (x118 (x96 x76 x7)) (x17 (x96 x7 x76)) (x23 (x96 x127 x38)) (x97 (x96 x76 x38)) (x153 (x96 x76 x127)) (x100 (x96 x7 x105)) (x102 (x96 x7 x38)) (x107 (x96 x127 x7)) (x82 (x96 x38 x38)) (x125 (x96 x38 x105)) (x50 (x96 x105 x105))) (or (or (and (and (not (= x76 (x96 x20 x20))) (and (and (not (= (x96 x157 x157) x105)) (not (= (x96 x152 x152) x38))) (not (= (x96 x61 x61) x127)))) (not (= (x96 x17 x17) x7))) (or (and (not (= x7 (x96 x159 x159))) (and (not (= (x96 x153 x153) x76)) (and (not (= (x96 x24 x24) x127)) (and (not (= (x96 x53 x53) x38)) (not (= (x96 x41 x41) x105)))))) (or (and (and (and (not (= (x96 x1 x1) x127)) (and (not (= x105 (x96 x50 x50))) (not (= x38 (x96 x125 x125))))) (not (= (x96 x2 x2) x76))) (not (= (x96 x100 x100) x7))) (and (not (= x7 (x96 x102 x102))) (and (not (= x76 (x96 x97 x97))) (and (and (not (= x105 (x96 x147 x147))) (not (= x38 (x96 x82 x82)))) (not (= x127 (x96 x23 x23))))))))) (and (and (and (not (= x127 (x96 x107 x107))) (and (not (= x38 (x96 x80 x80))) (not (= x105 (x96 x56 x56))))) (not (= (x96 x118 x118) x76))) (not (= (x96 x45 x45) x7))))))
(assert (and (and (not (= x127 x7)) (and (not (= x127 x76)) (and (not (= x7 x38)) (and (not (= x38 x76)) (and (not (= x38 x127)) (and (not (= x7 x105)) (and (not (= x105 x76)) (and (not (= x38 x105)) (not (= x127 x105)))))))))) (not (= x7 x76))))
(assert (let ((x80 (x96 x38 x7)) (x68 (x96 x7 x38)) (x95 (x96 x7 x76)) (x78 (x96 x7 x7)) (x100 (x96 x105 x76)) (x147 (x96 x105 x7)) (x158 (x96 x127 x127)) (x97 (x96 x127 x105)) (x1 (x96 x105 x38)) (x17 (x96 x38 x127)) (x125 (x96 x105 x105)) (x56 (x96 x38 x76)) (x2 (x96 x105 x127)) (x102 (x96 x76 x105)) (x25 (x96 x76 x76)) (x59 (x96 x76 x7)) (x119 (x96 x76 x127)) (x134 (x96 x7 x127)) (x42 (x96 x127 x7)) (x23 (x96 x38 x105)) (x41 (x96 x7 x105)) (x144 (x96 x76 x38)) (x20 (x96 x38 x38)) (x34 (x96 x127 x76)) (x45 (x96 x127 x38))) (let ((x32 (= x76 x20)) (x87 (= x7 x34)) (x129 (= x76 x158)) (x15 (= x7 x1)) (x157 (= x1 x105)) (x11 (= x41 x7)) (x46 (= x80 x127)) (x10 (= x105 x17)) (x18 (= x97 x127)) (x116 (= x144 x105)) (x48 (= x80 x76)) (x154 (= x38 x78)) (x111 (= x105 x59)) (x137 (= x42 x127)) (x91 (= x102 x38)) (x123 (= x76 x17)) (x126 (= x76 x34)) (x37 (= x76 x134)) (x135 (= x7 x25)) (x70 (= x127 x59)) (x30 (= x38 x25)) (x77 (= x38 x158)) (x128 (= x7 x56)) (x19 (= x76 x42)) (x89 (= x17 x38)) (x148 (= x34 x38)) (x6 (= x38 x95)) (x146 (= x38 x80)) (x16 (= x56 x127)) (x118 (= x20 x38)) (x151 (= x100 x105)) (x27 (= x42 x105)) (x43 (= x127 x20)) (x39 (= x56 x76)) (x113 (= x144 x76)) (x143 (= x147 x76)) (x114 (= x45 x7)) (x79 (= x105 x119)) (x90 (= x2 x105)) (x109 (= x38 x134)) (x132 (= x34 x105)) (x8 (= x59 x38)) (x50 (= x105 x125)) (x133 (= x68 x38)) (x35 (= x59 x7)) (x62 (= x147 x38)) (x65 (= x105 x78)) (x104 (= x105 x97)) (x74 (= x76 x45)) (x3 (= x68 x7)) (x83 (= x17 x7)) (x84 (= x38 x42)) (x108 (= x127 x2)) (x12 (= x158 x7)) (x29 (= x127 x119)) (x66 (= x25 x127)) (x121 (= x76 x25)) (x159 (= x23 x105)) (x64 (= x76 x100)) (x94 (= x34 x127)) (x152 (= x20 x105)) (x156 (= x134 x105)) (x75 (= x17 x127)) (x155 (= x41 x38)) (x63 (= x45 x105)) (x120 (= x1 x127)) (x106 (= x105 x25)) (x142 (= x144 x127)) (x53 (= x125 x127)) (x149 (= x80 x7)) (x33 (= x2 x7)) (x4 (= x76 x78)) (x24 (= x76 x125)) (x93 (= x100 x127)) (x150 (= x105 x41)) (x99 (= x102 x76)) (x9 (= x127 x68)) (x140 (= x95 x105)) (x107 (= x38 x1)) (x141 (= x105 x56)) (x103 (= x144 x38)) (x130 (= x76 x119)) (x5 (= x127 x23)) (x110 (= x127 x102)) (x138 (= x68 x76)) (x88 (= x119 x7)) (x153 (= x7 x125)) (x40 (= x105 x68)) (x13 (= x7 x102)) (x112 (= x95 x127)) (x131 (= x7 x42)) (x72 (= x76 x41)) (x44 (= x38 x45)) (x101 (= x127 x147)) (x86 (= x97 x38)) (x136 (= x158 x105)) (x51 (= x147 x7)) (x92 (= x2 x38)) (x117 (= x97 x76)) (x82 (= x38 x125)) (x85 (= x80 x105)) (x47 (= x2 x76)) (x139 (= x7 x23)) (x57 (= x105 x147)) (x26 (= x158 x127)) (x115 (= x7 x144)) (x22 (= x38 x119)) (x36 (= x100 x38)) (x49 (= x95 x76)) (x71 (= x7 x78)) (x81 (= x7 x95)) (x28 (= x78 x127)) (x31 (= x76 x23)) (x145 (= x127 x41)) (x69 (= x127 x134)) (x55 (= x76 x59)) (x61 (= x38 x23)) (x98 (= x45 x127)) (x54 (= x20 x7)) (x122 (= x7 x134)) (x14 (= x97 x7)) (x52 (= x105 x102)) (x60 (= x100 x7)) (x21 (= x56 x38)) (x58 (= x1 x76))) (and (and (and (and (and (and (and (or (or (or x117 (or x31 x24)) x99) x72) (or (or (or x47 (or x58 x24)) x64) x143)) (and (and (or (or x93 (or (or x120 x53) x108)) x101) (or (or x110 (or (or x53 x5) x18)) x145)) (and (and (or x62 (or x36 (or (or x82 x107) x92))) (or (or (or (or x82 x61) x86) x91) x155)) (and (or (or x52 (or x104 (or x159 x50))) x150) (or (or x151 (or (or x157 x50) x90)) x57))))) (and (or (or (or x33 (or x153 x15)) x60) x51) (or (or x13 (or (or x139 x153) x14)) x11))) (and (and (or (or x128 (or x83 (or x54 x139))) x149) (or (or (or (or x15 x54) x114) x115) x3)) (and (and (and (or (or x142 (or (or x43 x120) x98)) x9) (or (or (or (or x43 x5) x75) x16) x46)) (and (and (or (or (or x63 (or x157 x152)) x116) x40) (or (or (or x10 (or x159 x152)) x141) x85)) (and (or x146 (or x21 (or x89 (or x118 x61)))) (or x133 (or (or x44 (or x118 x107)) x103))))) (and (or x48 (or x39 (or (or x31 x32) x123))) (or x138 (or (or (or x32 x58) x74) x113)))))) (and (and (or (or (or x12 (or x83 x33)) x88) x122) (or (or x87 (or (or x114 x14) x12)) x131)) (and (and (and (and (or (or x22 (or (or x92 x89) x77)) x109) (or (or (or x77 (or x86 x44)) x148) x84)) (and (or x156 (or (or (or x90 x10) x136) x79)) (or (or (or (or x63 x104) x136) x132) x27))) (and (or x137 (or (or (or x98 x18) x26) x94)) (or (or x29 (or (or x108 x75) x26)) x69))) (and (or (or (or (or x47 x123) x129) x130) x37) (or (or (or x129 (or x117 x74)) x126) x19))))) (and (and (or (or (or x88 (or x115 x13)) x135) x35) (or x81 (or x135 (or (or x60 x128) x87)))) (and (and (and (or x70 (or x66 (or x29 (or x142 x110)))) (or (or (or x94 (or x93 x16)) x66) x112)) (and (and (or x8 (or x30 (or (or x91 x103) x22))) (or (or x30 (or x148 (or x21 x36))) x6)) (and (or x111 (or x106 (or x79 (or x52 x116)))) (or x140 (or (or x132 (or x151 x141)) x106))))) (and (or (or (or x130 (or x113 x99)) x121) x55) (or x49 (or x121 (or x126 (or x64 x39)))))))) (and (and (or x71 (or (or (or x149 x51) x131) x35)) (or x71 (or x81 (or (or x11 x3) x122)))) (and (and (or (or (or (or x72 x138) x37) x49) x4) (or x4 (or x55 (or (or x143 x48) x19)))) (and (and (or x28 (or (or (or x46 x101) x137) x70)) (or (or (or (or x9 x145) x69) x112) x28)) (and (and (or x65 (or (or (or x57 x85) x27) x111)) (or x65 (or (or x156 (or x40 x150)) x140))) (and (or (or (or (or x146 x62) x84) x8) x154) (or (or x6 (or x109 (or x155 x133))) x154))))))))))
(assert (and (and (and (not (= x127 (x96 x127 x127))) (and (not (= (x96 x105 x105) x105)) (not (= x38 (x96 x38 x38))))) (not (= (x96 x76 x76) x76))) (not (= x7 (x96 x7 x7)))))
(assert (let ((x53 (x96 x127 x38)) (x61 (x96 x76 x127)) (x23 (x96 x38 x127)) (x152 (x96 x76 x38)) (x17 (x96 x76 x7)) (x100 (x96 x105 x7)) (x102 (x96 x38 x7)) (x24 (x96 x127 x127)) (x56 (x96 x7 x105)) (x41 (x96 x127 x105)) (x2 (x96 x105 x76)) (x153 (x96 x127 x76)) (x20 (x96 x76 x76)) (x80 (x96 x7 x38)) (x157 (x96 x76 x105)) (x118 (x96 x7 x76)) (x159 (x96 x127 x7)) (x50 (x96 x105 x105)) (x147 (x96 x38 x105)) (x97 (x96 x38 x76)) (x107 (x96 x7 x127)) (x1 (x96 x105 x127)) (x82 (x96 x38 x38)) (x125 (x96 x105 x38)) (x45 (x96 x7 x7))) (and (and (and (and (and (and (and (and (or (or (or (= x50 x127) (or (= x50 x38) (= x50 x105))) (= x76 x50)) (= x50 x7)) (or (= x125 x7) (or (= x76 x125) (or (= x125 x127) (or (= x125 x105) (= x38 x125)))))) (or (or (or (= x1 x127) (or (= x1 x38) (= x105 x1))) (= x76 x1)) (= x7 x1))) (or (or (or (= x127 x2) (or (= x2 x105) (= x2 x38))) (= x2 x76)) (= x2 x7))) (or (= x100 x7) (or (or (= x127 x100) (or (= x38 x100) (= x105 x100))) (= x100 x76)))) (and (or (= x102 x7) (or (= x76 x102) (or (or (= x102 x38) (= x102 x105)) (= x127 x102)))) (and (and (or (or (= x76 x23) (or (= x127 x23) (or (= x23 x38) (= x105 x23)))) (= x7 x23)) (and (or (= x7 x82) (or (= x76 x82) (or (= x127 x82) (or (= x82 x105) (= x82 x38))))) (or (= x147 x7) (or (= x147 x76) (or (= x147 x127) (or (= x147 x105) (= x38 x147))))))) (or (or (= x76 x97) (or (= x127 x97) (or (= x38 x97) (= x105 x97)))) (= x97 x7))))) (and (or (or (or (= x127 x159) (or (= x105 x159) (= x159 x38))) (= x159 x76)) (= x7 x159)) (and (or (= x153 x7) (or (= x76 x153) (or (= x153 x127) (or (= x38 x153) (= x105 x153))))) (and (or (or (= x76 x24) (or (or (= x24 x38) (= x105 x24)) (= x24 x127))) (= x24 x7)) (and (or (or (or (or (= x53 x38) (= x53 x105)) (= x127 x53)) (= x53 x76)) (= x7 x53)) (or (= x7 x41) (or (or (= x41 x127) (or (= x38 x41) (= x41 x105))) (= x76 x41)))))))) (and (and (and (and (or (or (= x76 x152) (or (= x127 x152) (or (= x152 x105) (= x38 x152)))) (= x152 x7)) (or (or (= x76 x157) (or (= x157 x127) (or (= x157 x105) (= x157 x38)))) (= x7 x157))) (or (= x61 x7) (or (= x61 x76) (or (or (= x61 x38) (= x105 x61)) (= x127 x61))))) (or (= x20 x7) (or (or (or (= x20 x38) (= x20 x105)) (= x127 x20)) (= x20 x76)))) (or (= x17 x7) (or (or (= x127 x17) (or (= x17 x105) (= x38 x17))) (= x76 x17))))) (and (and (and (or (or (or (= x127 x107) (or (= x38 x107) (= x105 x107))) (= x76 x107)) (= x7 x107)) (and (or (or (= x76 x56) (or (= x56 x127) (or (= x56 x105) (= x56 x38)))) (= x7 x56)) (or (or (= x76 x80) (or (or (= x80 x105) (= x38 x80)) (= x127 x80))) (= x7 x80)))) (or (= x118 x7) (or (= x76 x118) (or (= x118 x127) (or (= x38 x118) (= x105 x118)))))) (or (= x45 x7) (or (or (or (= x38 x45) (= x45 x105)) (= x45 x127)) (= x76 x45)))))))
(assert (let ((x2 (x96 x76 x76)) (x100 (x96 x7 x7)) (x1 (x96 x127 x127)) (x125 (x96 x38 x38)) (x50 (x96 x105 x105))) (or (and (not (= x7 x100)) (and (not (= x2 x7)) (and (and (not (= x50 x7)) (not (= x7 x125))) (not (= x7 x1))))) (or (or (and (not (= x127 x100)) (and (and (and (not (= x127 x50)) (not (= x125 x127))) (not (= x127 x1))) (not (= x127 x2)))) (or (and (not (= x100 x38)) (and (and (not (= x1 x38)) (and (not (= x125 x38)) (not (= x38 x50)))) (not (= x2 x38)))) (and (and (and (not (= x105 x1)) (and (not (= x105 x50)) (not (= x125 x105)))) (not (= x2 x105))) (not (= x105 x100))))) (and (not (= x76 x100)) (and (not (= x2 x76)) (and (not (= x76 x1)) (and (not (= x50 x76)) (not (= x76 x125))))))))))
(assert (or (and (and (and (and (not (= x105 (x96 x7 x105))) (not (= x38 (x96 x7 x38)))) (not (= (x96 x7 x127) x127))) (not (= x76 (x96 x7 x76)))) (not (= x7 (x96 x7 x7)))) (or (or (or (and (not (= x7 (x96 x105 x7))) (and (and (and (not (= x105 (x96 x105 x105))) (not (= x38 (x96 x105 x38)))) (not (= x127 (x96 x105 x127)))) (not (= x76 (x96 x105 x76))))) (and (and (not (= x76 (x96 x38 x76))) (and (not (= (x96 x38 x127) x127)) (and (not (= x105 (x96 x38 x105))) (not (= x38 (x96 x38 x38)))))) (not (= (x96 x38 x7) x7)))) (and (not (= (x96 x127 x7) x7)) (and (not (= x76 (x96 x127 x76))) (and (not (= x127 (x96 x127 x127))) (and (not (= x105 (x96 x127 x105))) (not (= (x96 x127 x38) x38))))))) (and (and (and (and (not (= (x96 x76 x105) x105)) (not (= x38 (x96 x76 x38)))) (not (= (x96 x76 x127) x127))) (not (= x76 (x96 x76 x76)))) (not (= x7 (x96 x76 x7)))))))
(check-sat)
(exit)
